
  32    1
  10

   0   0   7 2 3 4 5 6 7 10 
   1   1   6 19 14 13 12 11 9 
   7   3   5 22 19 13 12 9 
   7   4   4 20 19 13 8 
   4   4   6 26 22 21 18 14 12 
  10   3   6 20 18 17 16 15 13 
   7   5   5 23 19 17 15 11 
   7   3   5 26 25 21 18 12 
   1  10   5 31 26 25 21 18 
   3   6   5 31 26 22 21 17 
   5   6   4 27 26 25 16 
   4   2   3 23 17 16 
   9   2   5 31 27 26 25 24 
   3   4   2 25 16 
   3   7   3 31 22 21 
   2   8   3 31 28 24 
   7   7   2 27 24 
   9   2   2 27 24 
   6   3   2 28 25 
   3   1   2 31 24 
   1   6   2 30 28 
   9   6   2 30 28 
   6   2   1 27 
   3   2   2 30 29 
   9   4   2 30 29 
   3   3   2 30 29 
   3   5   1 28 
   7   4   1 29 
   5   3   1 32
   3   1   1 32
   1   3   1 32
   0   0   0 
